&CONTROL
  calculation = 'scf',
  prefix = 'si',
  pseudo_dir = './pseudo',
  outdir = './tmp',
/
&SYSTEM
  ibrav = 0,
  nat = 2,
  ntyp = 1,
  ecutwfc = 40.0,
  ecutrho = 320.0,
  occupations = 'smearing',
/
&ELECTRONS
  conv_thr = 1.0d-10,
  mixing_beta = 0.7,
/
ATOMIC_SPECIES
Si 28.0855 Si.UPF

CELL_PARAMETERS angstrom
5.43 0.00 0.00
0.00 5.43 0.00
0.00 0.00 5.43

ATOMIC_POSITIONS crystal
Si 0.00 0.00 0.00
Si 0.25 0.25 0.25

K_POINTS automatic
6 6 6 0 0 0
